\* Problem: Unknown *\

Maximize
 obj: + xp_0_0 + xp_1_0 + xp_2_0 + xp_2_1 + xp_3_0 + xp_3_1 + xp_4_0
 + xp_5_0 + xp_6_0 + xp_7_0 + xp_8_0 + xp_9_0 + xp_9_1 + xp_10_0
 + xp_11_0 + xp_11_1 + xp_12_0 + xp_13_0 + xp_13_1 + xp_14_0 + xp_14_1
 + xp_15_0 + xp_16_0 + xp_17_0 + xp_17_1 + xp_18_0 + xp_18_1 + xp_19_0
 + xp_19_1 + xp_20_0 + xp_21_0 + xp_22_0 + xp_22_1 + xp_23_0 + xp_24_0
 + xp_24_1 + xp_25_0 + xp_26_0 + xp_27_0 + xp_28_0 + xp_28_1 + xp_29_0
 + xp_30_0 + xp_30_1 + xp_31_0 + xp_32_0 + xp_32_1 + xp_32_2 + xp_33_0
 + xp_34_0 + xp_34_1 + xp_35_0 + xp_36_0 + xp_37_0 + xp_38_0 + xp_39_0
 + xp_40_0 + xp_40_1 + xp_40_2 + xp_41_0 + xp_42_0 + xp_43_0 + xp_44_0
 + xp_45_0 + xp_46_0 + xp_47_0 + xp_48_0 + xp_48_1 + xp_49_0 + xp_50_0
 + xp_50_1 + xp_51_0 + xp_52_0 + xp_53_0 + xp_54_0 + xp_55_0 + xp_56_0
 + xp_57_0 + xp_58_0 + xp_58_1 + xp_59_0 + xp_60_0 + xp_60_1 + xp_61_0
 + xp_61_1 + xp_62_0 + xp_63_0 + xp_63_1 + xp_64_0 + xp_65_0 + xp_65_1
 + xp_66_0 + xp_67_0 + xp_67_1 + xp_68_0 + xp_68_1 + xp_69_0 + xp_70_0
 + xp_71_0 + xp_72_0 + xp_73_0 + xp_74_0 + xp_75_0 + xp_76_0 + xp_77_0
 + xp_78_0 + xp_78_1 + xp_78_2 + xp_78_3 + xp_78_4 + xp_79_0 + xp_79_1
 + xp_79_2 + xp_80_0 + xp_80_1 + xp_81_0 + xp_81_1 + xp_82_0 + xp_82_1
 + xp_83_0 + xp_84_0 + xp_85_0 + xp_85_1 + xp_85_2 + xp_86_0 + xp_86_1
 + xp_86_2 + xp_87_0 + xp_88_0 + xp_89_0 + xp_90_0 + xp_90_1 + xp_90_2
 + xp_91_0 + xp_91_1 + xp_91_2 + xp_92_0 + xp_93_0 + xp_94_0 + xp_95_0
 + xp_96_0 + xp_97_0 + xp_98_0 + xp_98_1 + xp_99_0 + xp_100_0 + xp_101_0
 + xp_102_0 + xp_103_0 + xp_104_0 + xp_105_0 + xp_106_0 + xp_107_0
 + xp_108_0 + xp_108_1 + xp_108_2 + xp_109_0 + xp_109_1 + xp_110_0
 + xp_111_0 + xp_111_1 + xp_112_0 + xp_112_1 + xp_112_2 + xp_113_0
 + xp_114_0 + xp_115_0 + xp_115_1 + xp_116_0 + xp_116_1 + xp_117_0
 + xp_118_0 + xp_119_0 + xp_120_0 + xp_120_1 + xp_121_0 + xp_122_0
 + xp_123_0 + xp_123_1 + xp_124_0 + xp_125_0 + xp_125_1 + xp_126_0
 + xp_126_1 + xp_126_2 + xp_126_3 + xp_126_4 + xp_127_0 + xp_127_1
 + xp_128_0 + xp_128_1 + xp_129_0 + xp_129_1 + xp_130_0 + xp_131_0
 + xp_131_1 + xp_131_2

Subject To
 r_1: + xp_128_1 + xp_123_1 + xp_122_0 + xp_121_0 + xp_108_2 + xp_107_0
 + xp_78_3 + xp_67_1 + xp_40_2 + xp_40_1 + xp_25_0 + xp_22_1 + xp_18_0
 + xp_16_0 + xp_13_1 + xp_4_0 <= 38394.8497854077
 r_2: + xp_131_2 + xp_131_1 + xp_127_1 + xp_126_4 + xp_126_1 + xp_120_1
 + xp_120_0 + xp_93_0 + xp_90_1 + xp_85_2 + xp_85_1 + xp_85_0 + xp_75_0
 + xp_71_0 + xp_66_0 + xp_65_1 + xp_65_0 + xp_61_1 + xp_55_0 + xp_52_0
 + xp_48_1 + xp_48_0 + xp_32_1 + xp_32_0 + xp_28_1 + xp_28_0 + xp_24_0
 + xp_19_1 + xp_19_0 <= 35332.4753324753
 r_3: + xp_126_4 + xp_114_0 + xp_95_0 + xp_91_2 + xp_79_2 + xp_76_0
 + xp_34_0 <= 39484.32760364
 r_4: + xp_117_0 + xp_112_2 + xp_91_1 + xp_91_0 + xp_84_0 + xp_79_1
 + xp_79_0 + xp_78_4 + xp_46_0 + xp_43_0 + xp_40_2 + xp_40_1 + xp_40_0
 + xp_34_1 <= 37043.4782608696
 r_5: + xp_130_0 + xp_112_2 + xp_99_0 + xp_86_0 + xp_78_4 + xp_7_0
 + xp_2_0 <= 39484.32760364
 r_6: + xp_126_4 + xp_126_2 + xp_119_0 + xp_114_0 + xp_95_0 + xp_91_2
 + xp_83_0 + xp_82_1 + xp_81_0 + xp_79_2 + xp_70_0 + xp_68_1 + xp_58_1
 + xp_53_0 + xp_48_1 + xp_45_0 + xp_34_0 + xp_32_2 + xp_32_1 + xp_30_1
 + xp_18_0 <= 38895.0789229341
 r_7: + xp_112_1 + xp_111_1 + xp_104_0 + xp_88_0 + xp_82_0 + xp_81_1
 + xp_78_2 + xp_50_1 + xp_44_0 + xp_27_0 + xp_18_1 + xp_3_1
 <= 37043.4782608696
 r_8: + xp_131_2 + xp_131_1 + xp_127_1 + xp_126_4 + xp_126_1 + xp_120_1
 + xp_120_0 + xp_118_0 + xp_103_0 + xp_90_1 + xp_71_0 + xp_61_1
 + xp_55_0 + xp_32_1 + xp_32_0 + xp_24_0 <= 38394.8497854077
 r_9: + xp_131_0 + xp_127_0 + xp_123_1 + xp_122_0 + xp_108_2 + xp_78_3
 + xp_77_0 + xp_67_1 + xp_42_0 + xp_33_0 + xp_32_2 + xp_24_1 <= 40000
 r_10: + xp_112_2 + xp_112_1 + xp_111_1 + xp_106_0 + xp_99_0 + xp_98_0
 + xp_88_0 + xp_86_0 + xp_85_0 + xp_78_4 + xp_78_2 + xp_50_1 + xp_26_0
 + xp_24_0 + xp_8_0 + xp_7_0 + xp_3_1 + xp_2_0 <= 38895.0789229341
 r_11: + xp_119_0 + xp_112_0 + xp_111_0 + xp_95_0 + xp_91_2 + xp_82_1
 + xp_81_0 + xp_79_2 + xp_78_3 + xp_78_1 + xp_78_0 + xp_59_0 + xp_53_0
 + xp_50_0 + xp_49_0 + xp_45_0 + xp_34_0 + xp_18_0 + xp_4_0 + xp_3_0
 <= 36597.9381443299
 r_12: + xp_129_0 + xp_128_0 + xp_123_0 + xp_117_0 + xp_112_2 + xp_112_1
 + xp_111_1 + xp_108_1 + xp_101_0 + xp_91_1 + xp_82_0 + xp_81_1
 + xp_80_1 + xp_79_1 + xp_78_4 + xp_78_2 + xp_78_0 + xp_73_0 + xp_63_1
 + xp_60_0 + xp_50_1 + xp_46_0 + xp_44_0 + xp_40_1 + xp_40_0 + xp_18_1
 + xp_17_1 + xp_15_0 + xp_14_1 + xp_13_0 + xp_9_0 <= 36327.4587833997
 r_13: + xp_129_1 + xp_128_1 + xp_126_3 + xp_123_1 + xp_120_1 + xp_109_1
 + xp_100_0 + xp_91_0 + xp_90_0 + xp_80_0 + xp_79_0 + xp_68_0 + xp_63_0
 + xp_60_1 + xp_40_2 + xp_34_1 + xp_31_0 + xp_30_0 + xp_17_0 + xp_13_1
 + xp_9_1 <= 36597.9381443299
 r_14: + xp_131_2 + xp_131_1 + xp_131_0 + xp_126_4 + xp_126_2 + xp_125_1
 + xp_125_0 + xp_124_0 + xp_115_1 + xp_115_0 + xp_98_1 + xp_94_0
 + xp_86_2 + xp_86_1 + xp_85_2 + xp_85_1 + xp_77_0 + xp_68_1 + xp_65_1
 + xp_65_0 + xp_58_1 + xp_56_0 + xp_51_0 + xp_48_1 + xp_41_0 + xp_38_0
 + xp_35_0 + xp_32_2 + xp_32_1 + xp_30_1 + xp_24_1 + xp_20_0 + xp_19_1
 + xp_19_0 + xp_12_0 + xp_2_1 + xp_0_0 <= 37043.4782608696
 r_15: + xp_131_2 + xp_131_0 + xp_126_4 + xp_126_3 + xp_126_2 + xp_125_0
 + xp_124_0 + xp_120_1 + xp_116_0 + xp_115_0 + xp_109_1 + xp_98_1
 + xp_94_0 + xp_90_0 + xp_89_0 + xp_86_1 + xp_85_1 + xp_77_0 + xp_68_1
 + xp_68_0 + xp_65_0 + xp_58_1 + xp_51_0 + xp_48_1 + xp_42_0 + xp_38_0
 + xp_36_0 + xp_32_2 + xp_32_1 + xp_28_1 + xp_24_1 + xp_19_1 + xp_12_0
 + xp_11_0 + xp_0_0 <= 36327.4587833997
 r_16: + xp_128_0 + xp_123_0 + xp_108_1 + xp_108_0 + xp_78_4 + xp_78_2
 + xp_78_1 + xp_78_0 + xp_73_0 + xp_67_0 + xp_57_0 + xp_46_0 + xp_44_0
 + xp_40_0 + xp_22_0 + xp_18_1 + xp_13_0 + xp_6_0 <= 36327.4587833997
 r_17: + xp_129_0 + xp_126_0 + xp_112_2 + xp_112_1 + xp_111_1 + xp_109_0
 + xp_97_0 + xp_91_1 + xp_90_2 + xp_81_1 + xp_80_1 + xp_79_1 + xp_63_1
 + xp_62_0 + xp_61_0 + xp_60_0 + xp_47_0 + xp_40_1 + xp_22_1 + xp_17_1
 + xp_9_0 + xp_1_0 <= 35332.4753324753
 r_18: + xp_126_3 + xp_126_1 + xp_126_0 + xp_106_0 + xp_99_0 + xp_98_0
 + xp_92_0 + xp_86_0 + xp_85_0 + xp_68_0 + xp_58_0 + xp_48_0 + xp_32_0
 + xp_30_0 + xp_26_0 + xp_24_0 + xp_5_0 + xp_2_0 <= 36597.9381443299
 r_19: + xp_131_1 + xp_125_1 + xp_116_1 + xp_115_1 + xp_110_0 + xp_108_1
 + xp_86_2 + xp_85_2 + xp_78_0 + xp_65_1 + xp_56_0 + xp_28_0 + xp_19_0
 + xp_14_1 + xp_11_1 + xp_3_0 + xp_2_1 <= 36597.9381443299
 r_20: + xp_129_1 + xp_128_1 + xp_123_1 + xp_119_0 + xp_112_0 + xp_111_0
 + xp_108_2 + xp_108_0 + xp_107_0 + xp_95_0 + xp_91_2 + xp_91_0
 + xp_82_1 + xp_81_0 + xp_80_0 + xp_79_2 + xp_79_0 + xp_78_3 + xp_78_1
 + xp_69_0 + xp_64_0 + xp_63_0 + xp_60_1 + xp_50_0 + xp_49_0 + xp_45_0
 + xp_40_2 + xp_18_0 + xp_17_0 + xp_14_0 + xp_13_1 + xp_10_0 + xp_9_1
 + xp_4_0 <= 35332.4753324753
 r_21: + xp_126_4 + xp_113_0 + xp_86_2 + xp_86_1 + xp_77_0 + xp_65_1
 + xp_65_0 + xp_38_0 + xp_20_0 + xp_2_1 + xp_0_0 <= 37043.4782608696
 r_22: + xp_126_2 + xp_124_0 + xp_105_0 + xp_98_1 + xp_94_0 + xp_85_2
 + xp_85_1 + xp_83_0 + xp_68_1 + xp_58_1 + xp_48_1 + xp_41_0 + xp_32_2
 + xp_32_1 + xp_30_1 + xp_24_1 <= 37043.4782608696
 r_23: + xp_128_1 + xp_128_0 + xp_117_0 + xp_112_2 + xp_112_1 + xp_111_1
 + xp_104_0 + xp_100_0 + xp_91_1 + xp_91_0 + xp_84_0 + xp_82_0 + xp_81_1
 + xp_80_1 + xp_80_0 + xp_79_1 + xp_79_0 + xp_78_4 + xp_78_2 + xp_73_0
 + xp_60_1 + xp_60_0 + xp_50_1 + xp_46_0 + xp_44_0 + xp_40_2 + xp_40_1
 + xp_40_0 + xp_34_1 + xp_21_0 + xp_18_1 + xp_15_0 + xp_9_1 + xp_9_0
 + xp_3_1 <= 37043.4782608696
 r_24: + xp_128_0 + xp_126_4 + xp_126_1 + xp_103_0 + xp_90_1 + xp_61_1
 + xp_40_0 + xp_39_0 + xp_22_0 + xp_18_1 + xp_13_0 <= 40000
 r_25: + xp_131_0 + xp_127_0 + xp_126_3 + xp_126_2 + xp_126_0 + xp_94_0
 + xp_90_2 + xp_90_0 + xp_89_0 + xp_77_0 + xp_74_0 + xp_61_0 + xp_42_0
 + xp_38_0 + xp_32_2 + xp_24_1 + xp_12_0 + xp_1_0 <= 36327.4587833997
 r_26: + xp_128_1 + xp_123_1 + xp_121_0 + xp_112_2 + xp_112_1 + xp_112_0
 + xp_108_2 + xp_107_0 + xp_81_1 + xp_81_0 + xp_79_2 + xp_79_1 + xp_79_0
 + xp_78_3 + xp_67_1 + xp_64_0 + xp_60_1 + xp_60_0 + xp_47_0 + xp_40_2
 + xp_40_1 + xp_37_0 + xp_29_0 + xp_25_0 + xp_22_1 + xp_18_0 + xp_17_1
 + xp_17_0 + xp_13_1 + xp_4_0 <= 35332.4753324753
 r_27: + xp_131_2 + xp_127_1 + xp_126_4 + xp_125_0 + xp_120_1 + xp_116_0
 + xp_115_0 + xp_108_0 + xp_98_1 + xp_86_1 + xp_85_1 + xp_82_1 + xp_78_1
 + xp_72_0 + xp_67_0 + xp_65_0 + xp_58_1 + xp_57_0 + xp_52_0 + xp_50_0
 + xp_48_1 + xp_32_1 + xp_28_1 + xp_23_0 + xp_19_1 + xp_14_0 + xp_11_0
 <= 35332.4753324753
 r_28: + xp_131_1 + xp_126_1 + xp_126_0 + xp_125_1 + xp_120_0 + xp_116_1
 + xp_115_1 + xp_109_0 + xp_99_0 + xp_98_0 + xp_96_0 + xp_92_0 + xp_90_2
 + xp_90_1 + xp_86_2 + xp_86_0 + xp_85_2 + xp_85_0 + xp_75_0 + xp_65_1
 + xp_58_0 + xp_54_0 + xp_48_0 + xp_32_0 + xp_28_0 + xp_26_0 + xp_24_0
 + xp_19_0 + xp_11_1 <= 35332.4753324753
 r_29: + xp_129_1 + xp_129_0 + xp_95_0 + xp_93_0 + xp_87_0 + xp_71_0
 + xp_62_0 + xp_49_0 + xp_45_0 + xp_10_0 + xp_9_1 + xp_9_0 + xp_1_0
 <= 35332.4753324753
 r_30: + xp_125_1 + xp_125_0 + xp_121_0 + xp_102_0 + xp_99_0 + xp_96_0
 + xp_92_0 + xp_57_0 + xp_37_0 + xp_26_0 + xp_23_0 + xp_11_1 + xp_11_0
 <= 35332.4753324753

Bounds
 0 <= xp_0_0 <= 230.828252174492
 0 <= xp_1_0 <= 178.601748190878
 0 <= xp_2_0 <= 87.5098417228872
 0 <= xp_2_1 <= 25.0028119208249
 0 <= xp_3_0 <= 158.527857359316
 0 <= xp_3_1 <= 19.8159821699145
 0 <= xp_4_0 <= 771.727192814665
 0 <= xp_5_0 <= 1059.8111678749
 0 <= xp_6_0 <= 1752.94069605249
 0 <= xp_7_0 <= 624.396869848543
 0 <= xp_8_0 <= 1476.91395092428
 0 <= xp_9_0 <= 47.0540024916842
 0 <= xp_9_1 <= 58.8175031146053
 0 <= xp_10_0 <= 53.6450016226753
 0 <= xp_11_0 <= 27.0804094729851
 0 <= xp_11_1 <= 13.5402047364926
 0 <= xp_12_0 <= 2022.19733881246
 0 <= xp_13_0 <= 191.719269287448
 0 <= xp_13_1 <= 54.7769340821281
 0 <= xp_14_0 <= 119.533500544116
 0 <= xp_14_1 <= 95.6268004352925
 0 <= xp_15_0 <= 496.087310678923
 0 <= xp_16_0 <= 2583.53554088819
 0 <= xp_17_0 <= 161.443658061831
 0 <= xp_17_1 <= 129.154926449465
 0 <= xp_18_0 <= 195.115066665807
 0 <= xp_18_1 <= 156.092053332646
 0 <= xp_19_0 <= 460.280991486865
 0 <= xp_19_1 <= 575.351239358581
 0 <= xp_20_0 <= 125.472563891498
 0 <= xp_21_0 <= 268.547393940436
 0 <= xp_22_0 <= 669.667004097166
 0 <= xp_22_1 <= 535.733603277733
 0 <= xp_23_0 <= 50.8724835099649
 0 <= xp_24_0 <= 185.156926674418
 0 <= xp_24_1 <= 148.125541339535
 0 <= xp_25_0 <= 566.302943812449
 0 <= xp_26_0 <= 15.0231795409656
 0 <= xp_27_0 <= 330.638904232066
 0 <= xp_28_0 <= 290.290526943216
 0 <= xp_28_1 <= 362.86315867902
 0 <= xp_29_0 <= 2395.32669505095
 0 <= xp_30_0 <= 139.564406598736
 0 <= xp_30_1 <= 39.8755447424961
 0 <= xp_31_0 <= 186.532439536538
 0 <= xp_32_0 <= 1713.43768604349
 0 <= xp_32_1 <= 244.776812291927
 0 <= xp_32_2 <= 244.776812291927
 0 <= xp_33_0 <= 7887.29821333775
 0 <= xp_34_0 <= 277.753300335353
 0 <= xp_34_1 <= 222.202640268282
 0 <= xp_35_0 <= 255.458529361826
 0 <= xp_36_0 <= 312.13395775886
 0 <= xp_37_0 <= 357.074542050933
 0 <= xp_38_0 <= 327.67295462312
 0 <= xp_39_0 <= 1539.84366436626
 0 <= xp_40_0 <= 461.692324996436
 0 <= xp_40_1 <= 92.3384649992872
 0 <= xp_40_2 <= 277.015394997862
 0 <= xp_41_0 <= 78.2108016445976
 0 <= xp_42_0 <= 444.505578349427
 0 <= xp_43_0 <= 481.579948461252
 0 <= xp_44_0 <= 448.825548432023
 0 <= xp_45_0 <= 41.6522488560676
 0 <= xp_46_0 <= 1571.37299825267
 0 <= xp_47_0 <= 860.254340925161
 0 <= xp_48_0 <= 2528.59383182779
 0 <= xp_48_1 <= 316.074228978474
 0 <= xp_49_0 <= 86.2059701556694
 0 <= xp_50_0 <= 511.776754262478
 0 <= xp_50_1 <= 255.888377131239
 0 <= xp_51_0 <= 694.483548651245
 0 <= xp_52_0 <= 648.317898216347
 0 <= xp_53_0 <= 185.887667882419
 0 <= xp_54_0 <= 3615.04123314728
 0 <= xp_55_0 <= 1160.00868292494
 0 <= xp_56_0 <= 93.7497985088581
 0 <= xp_57_0 <= 201.684573408327
 0 <= xp_58_0 <= 3461.07692627323
 0 <= xp_58_1 <= 988.87912179235
 0 <= xp_59_0 <= 10418.2848644153
 0 <= xp_60_0 <= 368.594462271187
 0 <= xp_60_1 <= 294.875569816949
 0 <= xp_61_0 <= 1579.13175049056
 0 <= xp_61_1 <= 789.565875245282
 0 <= xp_62_0 <= 128.438513500444
 0 <= xp_63_0 <= 100.347961769339
 0 <= xp_63_1 <= 28.6708462198112
 0 <= xp_64_0 <= 973.282811892168
 0 <= xp_65_0 <= 454.492374858777
 0 <= xp_65_1 <= 56.8115468573471
 0 <= xp_66_0 <= 1644.36114949891
 0 <= xp_67_0 <= 352.016666630846
 0 <= xp_67_1 <= 44.0020833288557
 0 <= xp_68_0 <= 480.698760533957
 0 <= xp_68_1 <= 961.397521067914
 0 <= xp_69_0 <= 1682.14476843026
 0 <= xp_70_0 <= 618.271539134415
 0 <= xp_71_0 <= 69.3774299831715
 0 <= xp_72_0 <= 586.35534225554
 0 <= xp_73_0 <= 903.454041751114
 0 <= xp_74_0 <= 933.049060675162
 0 <= xp_75_0 <= 1726.63401256445
 0 <= xp_76_0 <= 1685.6265353625
 0 <= xp_77_0 <= 560.048658767497
 0 <= xp_78_0 <= 3044.53294532408
 0 <= xp_78_1 <= 3044.53294532408
 0 <= xp_78_2 <= 12178.1317812963
 0 <= xp_78_3 <= 6089.06589064816
 0 <= xp_78_4 <= 3044.53294532408
 0 <= xp_79_0 <= 579.506434462902
 0 <= xp_79_1 <= 347.703860677741
 0 <= xp_79_2 <= 115.90128689258
 0 <= xp_80_0 <= 147.179876246827
 0 <= xp_80_1 <= 73.5899381234136
 0 <= xp_81_0 <= 227.074248321624
 0 <= xp_81_1 <= 28.3842810402029
 0 <= xp_82_0 <= 191.310913906507
 0 <= xp_82_1 <= 23.9138642383133
 0 <= xp_83_0 <= 493.379269731624
 0 <= xp_84_0 <= 871.537844872238
 0 <= xp_85_0 <= 222.338758728596
 0 <= xp_85_1 <= 133.403255237158
 0 <= xp_85_2 <= 44.4677517457192
 0 <= xp_86_0 <= 93.2769659625044
 0 <= xp_86_1 <= 55.9661795775026
 0 <= xp_86_2 <= 18.6553931925009
 0 <= xp_87_0 <= 138.367996973872
 0 <= xp_88_0 <= 416.458011395264
 0 <= xp_89_0 <= 2175.072698004
 0 <= xp_90_0 <= 11809.1003071262
 0 <= xp_90_1 <= 4723.64012285049
 0 <= xp_90_2 <= 4723.64012285049
 0 <= xp_91_0 <= 1184.63179598279
 0 <= xp_91_1 <= 1184.63179598279
 0 <= xp_91_2 <= 296.157948995696
 0 <= xp_92_0 <= 65.5088000584593
 0 <= xp_93_0 <= 127.793741846325
 0 <= xp_94_0 <= 232.246749813554
 0 <= xp_95_0 <= 60.0927181638623
 0 <= xp_96_0 <= 113.092948132419
 0 <= xp_97_0 <= 516.848957941545
 0 <= xp_98_0 <= 124.598540093692
 0 <= xp_98_1 <= 15.5748175117116
 0 <= xp_99_0 <= 16.0548141875555
 0 <= xp_100_0 <= 493.185838235389
 0 <= xp_101_0 <= 245.013228565104
 0 <= xp_102_0 <= 73.5039685695311
 0 <= xp_103_0 <= 1411.79201385829
 0 <= xp_104_0 <= 129.34119381621
 0 <= xp_105_0 <= 1421.72149733172
 0 <= xp_106_0 <= 40.6206142094777
 0 <= xp_107_0 <= 441.023811417187
 0 <= xp_108_0 <= 92.5104041070521
 0 <= xp_108_1 <= 277.531212321156
 0 <= xp_108_2 <= 462.552020535261
 0 <= xp_109_0 <= 526.635158825169
 0 <= xp_109_1 <= 421.308127060135
 0 <= xp_110_0 <= 130.630737124447
 0 <= xp_111_0 <= 2549.5130899392
 0 <= xp_111_1 <= 318.6891362424
 0 <= xp_112_0 <= 3570.45169120023
 0 <= xp_112_1 <= 510.064527314318
 0 <= xp_112_2 <= 510.064527314318
 0 <= xp_113_0 <= 417.167260214795
 0 <= xp_114_0 <= 2351.35326824005
 0 <= xp_115_0 <= 144.428850522587
 0 <= xp_115_1 <= 72.2144252612937
 0 <= xp_116_0 <= 104.410023190287
 0 <= xp_116_1 <= 52.2050115951436
 0 <= xp_117_0 <= 1905.6226237478
 0 <= xp_118_0 <= 3093.61439646149
 0 <= xp_119_0 <= 61.5756929683353
 0 <= xp_120_0 <= 1891.21555934299
 0 <= xp_120_1 <= 236.401944917874
 0 <= xp_121_0 <= 74.0842630582379
 0 <= xp_122_0 <= 2230.71649175445
 0 <= xp_123_0 <= 447.901375727786
 0 <= xp_123_1 <= 55.9876719659732
 0 <= xp_124_0 <= 135.015184372454
 0 <= xp_125_0 <= 14.865568692181
 0 <= xp_125_1 <= 11.8924549537448
 0 <= xp_126_0 <= 2765.28950605476
 0 <= xp_126_1 <= 8295.86851816429
 0 <= xp_126_2 <= 8295.86851816429
 0 <= xp_126_3 <= 2765.28950605476
 0 <= xp_126_4 <= 2765.28950605476
 0 <= xp_127_0 <= 377.105448105553
 0 <= xp_127_1 <= 188.552724052777
 0 <= xp_128_0 <= 265.516967166078
 0 <= xp_128_1 <= 132.758483583039
 0 <= xp_129_0 <= 21.349105880819
 0 <= xp_129_1 <= 26.6863823510237
 0 <= xp_130_0 <= 395.825318463466
 0 <= xp_131_0 <= 418.277700285777
 0 <= xp_131_1 <= 250.966620171466
 0 <= xp_131_2 <= 83.6555400571554

End
